WARNING: for repeatability, setting FPU to use double precision
============================[ Problem Statistics ]=============================
|                                                                             |
|  Number of variables:           100                                         |
|  Number of clauses:             449                                         |
|  Parse time:                   0.00 s                                       |
|  Eliminated clauses:           0.00 Mb                                      |
|  Simplification time:          0.00 s                                       |
|                                                                             |
============================[ Search Statistics ]==============================
| Conflicts |          ORIGINAL         |          LEARNT          | Progress |
|           |    Vars  Clauses Literals |    Limit  Clauses Lit/Cl |          |
===============================================================================
|       100 |      96      428     1289 |      156      100      8 |  0.010 % |
|       250 |      95      416     1253 |      172       91      6 |  1.010 % |
===============================================================================
restarts              : 3
conflicts             : 288            (inf /sec)
decisions             : 381            (0.00 % random) (inf /sec)
propagations          : 7009           (inf /sec)
conflict literals     : 1772           (18.68 % deleted)
Memory used           : 13.00 MB
CPU time              : 0 s

SATISFIABLE
